000 -99 000 -99 -99 000 000 000 -99 -99 -99 -99 000 000 000 -99 -99 -99 -99 -99 -99 -99 -99 -99 000 000 000 -99 000 -99 000
000 -99 -99 -99 -99 000 000 000 -99 -99 -99 -99 -99 000 000 -99 -99 -99 -99 -99 -99 -99 -99 -99 -99 000 000 -99 -99 -99 000
000 000 000 000 000 000 000 000 000 000 -99 -99 -99 -99 000 000 -99 -99 -99 -99 -99 -99 -99 -99 -99 000 000 000 -99 -99 000
000 -99 000 000 000 000 000 -99 000 000 -99 -99 -99 -99 000 000 -99 -99 -99 -99 -99 -99 -99 -99 -99 000 000 000 -99 -99 -99
000 000 000 000 000 000 000 000 000 000 -99 -99 000 000 000 000 000 -99 -99 -99 -99 -99 -99 -99 -99 000 000 000 000 -99 -99
000 000 000 000 000 000 000 000 000 000 -99 -99 -99 -99 000 000 000 -99 -99 -99 -99 -99 -99 000 000 -99 000 000 -99 -99 -99
000 000 000 000 000 000 000 -99 -99 -99 -99 -99 -99 -99 000 000 000 000 -99 -99 -99 -99 -99 000 000 -99 -99 -99 -99 -99 -99
000 000 000 000 000 000 000 000 000 -99 -99 -99 -99 -99 -99 000 000 -99 -99 -99 -99 -99 -99 000 000 000 -99 -99 -99 000 000
000 000 000 000 000 000 000 000 000 000 -99 -99 -99 -99 -99 -99 000 -99 -99 -99 -99 000 -99 000 000 000 000 000 -99 000 000
000 000 000 000 000 000 000 000 000 000 000 000 -99 -99 -99 -99 -99 -99 -99 -99 000 000 -99 -99 -99 000 000 000 -99 000 000
000 000 000 000 000 000 000 000 000 000 000 000 000 -99 -99 -99 -99 -99 000 000 000 000 000 000 -99 000 000 000 000 000 000
000 000 000 000 000 000 000 000 000 000 000 000 000 -99 -99 -99 000 -99 000 000 -99 -99 000 000 000 000 000 000 000 000 000
000 000 000 000 000 000 000 -99 000 000 000 000 000 -99 -99 -99 000 -99 000 000 -99 -99 -99 000 000 000 000 000 000 000 000
000 000 000 000 000 000 000 -99 -99 -99 -99 000 -99 -99 -99 -99 -99 -99 -99 -99 -99 000 000 000 000 000 000 000 000 000 -99
000 000 000 000 000 000 000 -99 -99 -99 -99 -99 -99 000 -99 -99 -99 -99 -99 -99 -99 000 000 -99 000 000 000 000 000 000 -99
000 -99 000 000 000 000 000 000 000 -99 -99 -99 000 000 -99 -99 -99 -99 -99 -99 -99 -99 000 000 000 000 000 -99 -99 -99 -99
000 -99 -99 000 000 000 000 000 000 -99 -99 -99 -99 000 000 -99 -99 -99 -99 -99 -99 -99 000 000 000 000 000 -99 -99 -99 -99
000 000 000 -99 -99 -99 000 000 000 -99 -99 -99 -99 000 000 -99 000 000 -99 -99 -99 -99 000 000 -99 000 -99 -99 -99 -99 -99
000 000 000 000 -99 -99 000 000 000 -99 -99 -99 -99 -99 -99 -99 000 000 -99 -99 -99 -99 000 000 000 -99 -99 -99 -99 -99 -99
000 000 000 000 000 -99 000 000 000 -99 -99 -99 -99 -99 -99 -99 000 000 -99 -99 -99 -99 000 -99 -99 -99 -99 -99 -99 -99 -99
000 000 000 000 000 -99 000 000 000 000 -99 -99 -99 -99 -99 -99 000 000 -99 -99 000 000 000 -99 -99 -99 -99 -99 -99 -99 -99
000 000 000 000 000 000 000 000 000 000 -99 -99 -99 -99 -99 -99 000 000 -99 -99 000 000 000 -99 -99 -99 -99 -99 -99 -99 -99
-99 000 000 000 000 000 000 000 000 000 -99 -99 -99 -99 -99 -99 000 000 000 -99 000 000 000 -99 -99 -99 -99 -99 -99 -99 -99
000 000 000 000 000 000 000 000 000 000 -99 -99 000 000 000 -99 000 000 000 -99 000 000 000 -99 -99 -99 -99 -99 -99 -99 -99
000 000 000 000 000 000 000 000 -99 000 000 -99 000 000 000 000 000 000 -99 -99 000 000 000 -99 -99 -99 -99 -99 -99 -99 -99
000 000 -99 -99 000 000 000 000 000 000 000 000 000 000 000 000 000 000 000 -99 -99 -99 -99 -99 -99 -99 -99 -99 -99 -99 -99
000 000 -99 000 000 000 000 000 -99 -99 000 000 000 -99 000 000 000 000 000 -99 -99 -99 -99 -99 -99 -99 -99 -99 -99 -99 000
000 000 -99 000 -99 -99 000 000 -99 -99 000 000 000 -99 000 000 000 000 -99 -99 -99 -99 -99 -99 -99 -99 -99 -99 -99 000 000
000 -99 -99 -99 -99 000 000 000 -99 000 000 000 000 -99 000 000 000 000 -99 -99 -99 000 -99 -99 -99 -99 -99 -99 -99 000 000
-99 000 -99 -99 000 000 000 000 000 000 000 -99 -99 000 000 000 000 000 -99 -99 -99 000 -99 000 000 000 -99 -99 -99 000 -99
-99 000 000 000 000 000 000 000 000 000 000 -99 -99 -99 000 000 000 000 000 -99 -99 000 -99 000 000 000 -99 -99 -99 -99 -99
000 000 000 000 000 000 000 000 000 000 -99 -99 -99 -99 000 000 000 000 -99 -99 -99 000 000 000 000 000 -99 -99 000 -99 -99
000 000 000 000 000 000 000 000 000 -99 -99 -99 -99 000 000 000 000 000 000 -99 -99 000 000 000 000 -99 -99 000 -99 -99 -99
-99 000 000 000 000 000 000 000 -99 -99 -99 -99 -99 000 000 000 000 000 000 -99 -99 000 000 000 000 000 000 000 000 000 -99
-99 -99 -99 000 000 000 000 000 000 000 -99 -99 -99 000 000 000 000 000 -99 -99 -99 000 000 000 000 000 000 000 000 000 -99
000 000 -99 000 000 000 000 000 000 000 000 -99 -99 -99 000 000 000 000 000 -99 000 000 -99 000 000 000 000 000 000 000 -99
000 000 000 000 000 -99 -99 000 000 -99 -99 -99 -99 -99 -99 000 000 000 000 000 000 000 -99 000 000 000 000 000 000 -99 -99
000 000 000 000 000 000 000 000 -99 -99 -99 -99 -99 -99 000 000 000 000 000 -99 000 000 -99 000 000 000 000 -99 -99 -99 -99
000 000 000 000 000 000 000 001 -99 -99 -99 -99 -99 000 000 000 000 000 -99 -99 000 000 000 000 000 000 -99 -99 -99 -99 -99
000 001 001 000 000 000 001 001 000 -99 000 000 000 000 000 000 000 -99 -99 -99 -99 -99 -99 000 000 000 -99 -99 -99 -99 -99
000 001 001 001 001 001 002 002 000 000 000 000 000 000 000 000 000 -99 -99 -99 -99 -99 -99 -99 -99 -99 -99 -99 -99 -99 -99
000 001 001 003 002 001 002 002 000 000 000 000 000 000 000 000 000 -99 -99 000 -99 -99 -99 -99 -99 -99 -99 -99 -99 -99 -99
006 001 002 011 002 001 002 003 003 002 002 001 000 000 000 000 000 000 000 000 -99 -99 -99 -99 -99 -99 -99 -99 -99 -99 -99
009 003 004 008 002 003 000 002 004 005 012 001 000 000 000 000 -99 000 000 -99 -99 -99 -99 -99 000 -99 -99 -99 -99 -99 000
003 004 004 003 006 003 002 003 003 014 006 000 000 000 000 000 -99 -99 000 000 -99 -99 -99 -99 000 -99 -99 -99 -99 -99 -99
000 001 002 004 008 003 004 003 003 011 002 000 000 000 000 -99 -99 -99 000 000 -99 -99 -99 000 000 000 -99 -99 -99 -99 000
000 000 001 001 004 003 002 001 001 001 000 000 000 000 000 -99 -99 -99 000 000 000 000 000 000 000 -99 -99 -99 -99 -99 000
-99 -99 000 000 001 001 000 000 000 000 000 000 000 -99 -99 -99 -99 -99 000 -99 000 000 000 000 000 000 -99 -99 -99 -99 -99
-99 -99 -99 -99 000 000 000 000 000 000 -99 -99 -99 -99 -99 -99 -99 -99 -99 -99 -99 -99 -99 000 -99 000 -99 -99 -99 -99 -99
-99 -99 -99 000 000 000 -99 -99 -99 -99 -99 -99 -99 -99 -99 -99 -99 -99 -99 -99 -99 -99 -99 -99 -99 -99 -99 -99 -99 -99 -99
-99 -99 -99 -99 -99 -99 -99 -99 -99 -99 -99 -99 -99 -99 -99 -99 -99 -99 -99 -99 -99 -99 -99 -99 -99 -99 -99 -99 -99 -99 -99
-99 -99 -99 -99 -99 -99 -99 -99 -99 -99 -99 -99 -99 -99 -99 -99 -99 -99 -99 -99 -99 -99 -99 -99 -99 -99 -99 -99 -99 -99 -99
-99 -99 -99 -99 -99 -99 -99 -99 -99 -99 -99 -99 -99 -99 -99 -99 -99 -99 -99 -99 -99 -99 -99 -99 -99 -99 -99 -99 -99 -99 -99
-99 -99 -99 -99 -99 -99 -99 -99 -99 -99 -99 -99 -99 -99 -99 -99 -99 -99 -99 -99 -99 -99 -99 -99 -99 -99 -99 -99 -99 -99 -99
-99 -99 -99 -99 -99 -99 -99 -99 -99 -99 -99 -99 -99 -99 000 -99 -99 -99 -99 -99 -99 -99 -99 -99 -99 -99 -99 -99 -99 -99 -99
